
Gurobi 11.0.3 (linux64) logging started Fri Nov 22 00:30:14 2024

Set parameter LogFile to value "/home/yihong/Coding/OR_SUC/SUC_results_bigM100000_thread4/case24_ieee_rts_theta0.5_epsilon0.05_gurobi_seed930000_num_gen100_N_WDR100_load_scaling_factor1_exact_T20quadra_cost.txt"
Set parameter TimeLimit to value 3600
Gurobi Optimizer version 11.0.3 build v11.0.3rc0 (linux64 - "Ubuntu 20.04.6 LTS")

CPU model: AMD EPYC 7532 32-Core Processor, instruction set [SSE2|AVX|AVX2]
Thread count: 64 physical cores, 128 logical processors, using up to 4 threads

Optimize a model with 47983 rows, 25001 columns and 1104482 nonzeros
Model fingerprint: 0xa23a526e
Model has 2000 quadratic constraints
Variable types: 22901 continuous, 2100 integer (2100 binary)
Coefficient statistics:
  Matrix range     [3e-04, 1e+05]
  QMatrix range    [2e-03, 8e-03]
  QLMatrix range   [1e-01, 6e+01]
  Objective range  [1e+00, 1e+00]
  Bounds range     [1e+00, 1e+00]
  RHS range        [1e+00, 1e+05]
Presolve removed 39133 rows and 10576 columns
Presolve time: 0.34s
Presolved: 8850 rows, 14425 columns, 50684 nonzeros
Presolved model has 2000 quadratic constraint(s)
Variable types: 12333 continuous, 2092 integer (2092 binary)

Root relaxation: objective 3.951687e+04, 7205 iterations, 0.19 seconds (0.26 work units)

    Nodes    |    Current Node    |     Objective Bounds      |     Work
 Expl Unexpl |  Obj  Depth IntInf | Incumbent    BestBd   Gap | It/Node Time

     0     0 39516.8707    0   32          - 39516.8707      -     -    0s
     0     0 336289.264    0  564          - 336289.264      -     -    1s
     0     0 336915.640    0  566          - 336915.640      -     -    1s
     0     0 593739.477    0  496          - 593739.477      -     -    1s
     0     0 594264.002    0  427          - 594264.002      -     -    1s
     0     0 594469.057    0  319          - 594469.057      -     -    1s
     0     0 594474.952    0  315          - 594474.952      -     -    1s
     0     0 594474.952    0  315          - 594474.952      -     -    1s
     0     0 594476.252    0  315          - 594476.252      -     -    1s
     0     2 594476.252    0  315          - 594476.252      -     -    3s
H  194   384                    594716.79060 594489.367  0.04%  34.1    4s
*  194   384             100    594716.79060 594489.367  0.04%  34.1    4s

Cutting planes:
  Gomory: 16
  Implied bound: 342
  MIR: 128
  Flow cover: 136
  RLT: 1
  Relax-and-lift: 14

Explored 403 nodes (30187 simplex iterations) in 5.03 seconds (6.02 work units)
Thread count was 4 (of 128 available processors)

Solution count 2: 594717 594717 

Optimal solution found (tolerance 1.00e-03)
Warning: max constraint violation (3.0875e-07) exceeds tolerance
Best objective 5.947167906006e+05, best bound 5.944893669946e+05, gap 0.0382%
